peakDumbCharging = 14800; 
Machine = anon_enum(16); 
machineSpeed = [3700,3700,3700,3700,3700,3700,3700,3700,3700,3700,3700,3700,3700,3700,3700,3700]; 
machineLoad = [3700,3700,3700,3700,3700,3700,3700,3700,3700,3700,3700,3700,3700,3700,3700,3700]; 
Car = anon_enum(22); 
demandCar = [11960,38240,8600,14120,19000,8960,14360,4600,2280,8480,5360,12840,16520,8320,1280,4560,3520,14920,15200,4200,8840,33680]; 
arrivalCar = [71,70,69,61,61,61,60,54,53,52,52,48,47,44,44,41,40,38,37,34,31,29]; 
departureCar = [75,82,72,66,71,67,65,56,55,56,54,53,56,50,50,43,42,46,43,36,35,43]; 
